p cnf 119 573
-1 -2 0
-1 -3 0
-1 -4 0
-1 -5 0
-1 -6 0
7 -8 0
7 -9 0
7 -10 0
7 -11 0
7 12 0
-7 -12 9 8 10 11 0
2 3 4 5 6 9 0
-6 -9 0
-5 -9 0
-4 -9 0
-3 -9 0
-2 -9 0
13 -8 0
13 -9 0
13 12 0
14 15 0
-11 15 0
2 -11 0
-3 16 0
17 18 0
-4 19 0
-10 18 0
6 -10 0
20 -10 0
20 -11 0
-20 10 11 0
2 21 0
17 -22 0
23 -24 0
25 -24 0
25 -22 0
6 25 0
-26 -27 0
-28 -29 0
-29 30 0
-27 30 0
31 -30 0
-31 30 0
3 4 5 6 32 0
-6 -32 0
-5 -32 0
-4 -32 0
-3 -32 0
33 12 0
33 -34 0
33 -31 0
-33 -12 34 31 0
-35 36 0
-37 38 0
38 -39 0
36 -39 0
40 -39 0
-40 39 0
-12 -41 -40 8 0
12 -8 0
41 -8 0
40 -8 0
-6 42 0
-5 42 0
-4 42 0
-3 42 0
3 4 5 6 -42 0
-6 43 0
-5 43 0
-4 43 0
-3 43 0
-2 43 0
2 3 4 5 6 -43 0
-44 45 0
44 -45 0
-46 47 0
46 -47 0
-48 49 0
48 -49 0
50 -49 0
50 -47 0
50 -45 0
44 51 0
-44 -51 0
52 53 0
-52 -53 0
54 46 0
-54 -46 0
55 48 0
-55 -48 0
-56 -57 58 0
57 -58 0
59 -58 0
56 -58 0
60 -61 0
59 -61 0
56 -61 0
-56 -62 -63 64 0
62 -64 0
63 -64 0
59 -64 0
56 -64 0
65 66 0
60 -67 0
59 -67 0
56 -67 0
-68 66 0
-69 63 0
-70 65 0
-71 60 0
-71 72 0
-70 72 0
-69 72 0
-73 -74 0
-75 -76 0
-77 -78 0
79 -80 0
79 -81 0
-79 80 81 0
-75 82 0
-77 83 0
-84 85 0
84 -85 0
-86 87 0
86 -87 0
-88 89 0
88 -89 0
90 -89 0
90 -87 0
90 -85 0
86 91 0
-86 -91 0
88 92 0
-88 -92 0
-93 92 0
-93 91 0
46 -76 0
44 -74 0
48 -78 0
-94 -9 0
95 -61 0
-95 61 0
-84 -93 0
-4 23 16 0
96 -91 -92 0
-96 92 0
-96 91 0
30 36 0
73 74 -85 0
-94 -5 -33 -13 -7 0
4 -95 0
-4 95 0
12 -97 0
12 -59 -56 0
-12 97 59 0
-12 97 56 0
2 -98 0
-2 98 0
-94 -6 -33 -13 -7 0
97 -80 0
97 -81 0
-97 80 81 0
-83 -78 0
83 78 0
77 78 -89 0
77 -83 -89 0
-99 90 0
100 -99 0
99 -90 85 87 89 0
100 -90 85 87 89 0
101 -102 0
-101 102 0
-82 -76 0
82 76 0
75 76 -87 0
75 -82 -87 0
103 -93 0
-27 -39 0
26 27 -45 0
26 -39 -45 0
17 -69 0
-94 -3 -33 -12 -20 0
104 -105 0
-104 105 0
-13 -12 25 9 8 0
-13 -12 21 9 8 0
13 -25 -21 0
-94 -5 -33 -12 -20 0
-94 -4 -33 -12 -20 0
6 -106 0
77 -90 -88 0
-77 88 0
-77 90 0
3 -107 0
-3 107 0
-94 -2 -33 -12 -20 0
108 -109 0
-108 109 0
-94 -3 -33 -13 -7 0
57 60 110 0
-57 -110 0
-60 -110 0
109 -90 -88 0
-109 88 0
-109 90 0
5 -111 0
-5 111 0
-5 112 19 0
-94 -4 -33 -13 -7 0
-94 -43 -12 -41 -40 -19 -23 0
-94 -4 -33 -12 -25 -21 0
-94 -6 -12 -41 -40 -113 0
-94 -2 -12 -40 -114 0
-94 -6 -33 -12 -25 -21 0
-94 -5 -33 -12 -25 -21 0
-94 -2 -33 -12 -25 -21 0
-105 86 0
-105 90 0
102 -96 -99 0
-102 96 0
-102 99 0
-102 90 0
57 60 65 62 0
-57 -62 0
-60 -62 0
-65 -62 0
50 -53 0
35 -36 -53 0
35 30 -53 0
-50 53 45 47 49 0
35 -36 -50 45 47 49 0
35 30 -50 45 47 49 0
53 115 -100 0
-116 92 0
-116 91 0
112 -71 0
-75 86 0
-75 90 0
-94 -2 -12 -40 -117 0
115 -96 -99 0
-115 96 0
-115 99 0
-115 90 0
73 -90 -116 -84 0
-73 116 0
-73 84 0
-73 90 0
103 -90 -116 -84 0
-103 116 0
-103 84 93 0
-103 90 93 0
23 -70 0
56 -57 -68 0
-94 -2 -33 -13 -7 0
-94 -6 -33 -12 -20 0
-94 -3 -33 -12 -25 -21 0
-94 -43 -12 -41 -40 -16 -17 0
118 -103 0
-6 -25 113 112 22 24 0
-94 2 3 4 5 6 0
105 -90 -86 -92 0
75 -90 -86 -92 0
-105 92 0
75 -105 0
-75 92 0
-75 105 0
2 34 -32 0
98 -64 0
-98 79 64 0
-98 64 68 0
98 -79 -68 0
-60 -68 67 0
99 84 93 -91 -92 0
99 116 -91 -92 0
-99 -93 0
116 -93 0
-99 -116 0
-116 84 93 0
111 -58 0
-111 79 58 0
-111 72 58 0
111 -79 -72 0
2 -41 42 0
-61 67 0
-57 -61 0
61 -67 0
-57 -67 0
-56 57 -60 61 0
-56 57 -60 67 0
-35 53 0
-35 97 0
-35 50 0
118 102 105 109 0
-118 -109 103 0
-118 -105 103 0
-118 -102 103 0
107 -56 -110 -65 0
-107 110 0
-107 65 0
-107 59 0
-107 56 0
-28 48 0
-28 97 0
-28 50 0
-94 -2 -12 -40 -14 0
-37 46 0
-37 97 0
-37 50 0
71 -60 -81 0
-71 57 81 0
71 -57 -60 0
59 -57 0
59 -60 0
59 -65 0
59 -63 0
-59 57 60 65 63 0
57 60 65 63 80 0
-57 -80 0
-60 -80 0
-65 -80 0
-63 -80 0
-56 -110 66 0
110 -65 -66 0
56 -65 -66 0
-26 44 0
-26 97 0
-26 50 0
-17 69 -63 0
-94 -2 -12 -40 -119 0
41 -113 -42 0
41 -112 -42 0
41 -23 -42 0
41 -17 -42 0
2 -41 113 112 23 17 0
-2 41 -114 0
-2 41 -117 0
-2 41 -14 0
-2 41 -119 0
-41 114 117 14 119 42 0
-41 113 112 23 17 114 117 14 119 0
12 -23 24 0
-23 -34 24 0
-23 -31 24 0
70 -65 -81 0
-70 57 60 81 0
70 -57 -65 0
70 -60 -65 0
-23 70 -65 0
2 113 112 23 17 34 0
-113 -34 32 0
-112 -34 32 0
-23 -34 32 0
-17 -34 32 0
12 -17 22 0
-17 -34 22 0
-17 -31 22 0
-112 71 -60 0
71 70 69 -72 57 0
113 71 70 69 -72 0
71 70 69 -72 81 0
72 -57 -81 0
113 -57 -81 0
-113 72 -57 0
-113 -57 81 0
114 117 14 119 34 -32 0
113 112 23 17 114 117 14 119 34 0
-2 -114 -34 0
-2 -117 -34 0
-2 -14 -34 0
-2 -119 -34 0
-6 113 112 19 0
4 -112 -19 0
4 5 -113 -19 0
4 5 6 -19 0
-26 -28 -36 -38 39 0
27 -28 -36 -38 39 0
-29 -39 0
28 -39 -49 0
-26 29 -36 -38 39 0
27 29 -36 -38 39 0
28 29 -49 0
-5 112 23 16 0
3 -23 -16 0
3 4 -112 -16 0
-12 -41 -40 -16 18 0
16 -17 -18 0
12 -17 -18 0
41 -17 -18 0
40 -17 -18 0
27 -35 -37 29 -30 0
27 -35 29 -30 -38 0
27 -37 29 -30 -36 0
27 29 -30 -36 -38 0
30 38 0
37 30 -47 0
37 -38 -47 0
69 -63 -81 0
-69 57 60 65 80 81 0
69 -57 -63 0
69 -60 -63 0
69 -65 -63 0
-6 -12 -41 -40 112 -19 10 -18 0
19 -23 -10 0
12 -23 -10 0
41 -23 -10 0
40 -23 -10 0
12 -114 -11 0
41 -114 -11 0
40 -114 -11 0
12 25 -113 0
25 -113 -34 0
25 -113 -31 0
-6 -12 -25 112 34 31 22 24 0
63 68 -66 -67 0
57 60 63 68 -66 0
-59 -56 60 63 68 -66 0
62 -63 -68 0
56 -63 -68 0
-62 68 -66 -67 0
-56 -62 68 -66 0
4 5 -113 -23 24 0
4 -112 -23 24 0
4 5 6 -23 24 0
-4 -12 34 31 -24 0
-5 -12 112 34 31 -24 0
-6 -12 113 112 34 31 -24 0
-106 79 0
-106 59 68 0
-106 56 68 0
-106 59 72 0
-106 56 72 0
106 -79 -72 -68 0
106 -59 -56 -79 0
12 -14 -15 0
41 -14 -15 0
40 -14 -15 0
-114 -14 -15 0
-117 -14 -15 0
2 -14 -15 0
-94 -43 -14 -15 0
-2 -12 -40 114 117 15 0
12 21 -117 0
21 -117 -34 0
21 -117 -31 0
21 -114 -117 0
12 21 -14 0
21 -14 -34 0
21 -14 -31 0
21 -114 -14 0
21 -117 -14 0
6 98 107 95 111 0
-6 -111 106 0
-6 -95 106 0
-6 -107 106 0
-6 -98 106 0
12 -117 -11 0
41 -117 -11 0
40 -117 -11 0
-114 -117 -11 0
-94 -43 -117 -11 0
-2 114 117 119 11 -15 0
-2 -12 -40 117 119 11 -15 0
-2 -12 -40 114 119 11 -15 0
26 -101 -44 -97 -50 0
26 -52 -104 -44 -97 -50 0
-26 52 101 0
-26 104 54 101 0
26 -52 -54 -108 -44 -97 -50 0
28 -118 -97 -50 -48 0
28 -101 -97 -50 -51 -48 0
-28 118 51 0
-28 52 118 101 0
28 -52 -104 -97 -50 -51 -48 0
37 -108 -97 -50 -46 0
37 -55 -118 -97 -50 -46 0
-37 108 55 0
-37 108 118 51 0
37 -55 -101 -97 -50 -51 -46 0
-78 81 0
-76 81 0
-74 81 0
-115 74 76 78 -81 0
100 74 76 78 -81 0
53 74 76 78 -81 0
115 -100 81 0
-3 -12 34 31 -22 0
-4 -12 23 34 31 -22 0
-5 -12 112 23 34 31 -22 0
3 4 -112 -17 22 0
3 -23 -17 22 0
12 21 -119 0
21 -119 -34 0
21 -119 -31 0
21 -114 -119 0
21 -117 -119 0
21 -14 -119 0
-2 -12 -40 114 117 14 11 0
12 -119 -11 0
41 -119 -11 0
40 -119 -11 0
-114 -119 -11 0
-117 -119 -11 0
-14 -119 -11 0
-94 -43 -119 -11 0
12 25 -112 0
25 -112 -34 0
25 -112 -31 0
5 25 -113 -112 0
-6 -12 -25 113 34 31 22 24 0
-5 -6 -12 -25 34 31 22 24 0
12 21 -114 0
21 -114 -34 0
21 -114 -31 0
-2 -21 114 117 14 119 0
-2 -12 -21 117 14 119 31 0
-2 -12 -21 114 14 119 31 0
-2 -12 -21 114 117 119 31 0
-2 -12 -21 114 117 14 31 0
12 -112 -10 0
41 -112 -10 0
40 -112 -10 0
5 -113 -112 -10 0
-94 -43 -112 -10 0
-5 -6 -12 -41 -40 23 10 -18 0
-94 -5 -12 -41 -40 -112 0
-5 -6 -12 -41 -40 -19 10 -18 0
-6 -12 -41 -40 113 23 10 -18 0
-94 -6 -12 -41 -40 -112 0
-6 -12 -41 -40 113 -19 10 -18 0
-56 83 0
-56 82 0
-56 -74 0
73 -56 -85 0
115 -100 -56 0
-115 -73 56 -82 -83 0
-115 56 -82 -83 74 0
100 -73 56 -82 -83 0
100 56 -82 -83 74 0
94 1 -98 0
94 1 -107 0
94 1 -95 0
94 1 -111 0
94 1 -106 0
-6 113 112 23 16 0
3 4 5 -113 -16 0
3 4 5 6 -16 0
3 4 5 -113 -17 22 0
3 4 5 6 -17 22 0
-6 -12 113 112 23 34 31 -22 0
26 -52 -54 -55 -118 -44 -97 -50 0
-26 104 108 55 101 0
-26 104 108 118 101 0
28 -52 -54 -108 -97 -50 -51 -48 0
-28 104 54 118 101 0
-28 104 108 118 101 0
37 -52 -104 -55 -97 -50 -51 -46 0
-37 52 108 118 101 0
-37 104 108 118 101 0
-6 113 112 23 10 -18 0
12 -113 -10 0
41 -113 -10 0
40 -113 -10 0
-6 -12 -41 -40 112 23 10 -18 0
-1 98 107 95 111 106 0
-94 -1 0
35 -104 -97 -53 0
35 -54 -108 -97 -53 0
-35 104 54 0
-35 104 108 55 0
-35 104 108 118 51 0
-35 104 108 118 101 0
35 -54 -55 -118 -97 -53 0
35 -54 -55 -101 -97 -51 -53 0